2652684.0
1418
0 1 2 3 4 5 6 7 8 9 10 12 13 15 16 17 19 20 21 23 24 25 27 28 29 31 32 33 34 39 40 41 42 47 48 49 50 51 52 54 55 56 57 58 59 60 61 63 65 66 67 69 70 72 73 74 75 76 77 79 80 81 83 84 85 86 87 89 90 91 93 94 95 97 99 